%%MatrixMarket matrix coordinate real symmetric
%
200 200 2133
1 1 2.000000000000000e+00
2 2 2.000000000000000e+00
3 3 2.000000000000000e+00
4 4 2.000000000000000e+00
5 5 2.000000000000000e+00
6 6 2.000000000000000e+00
7 7 2.000000000000000e+00
8 3 3.197571219487634e-01
8 8 2.000000000000000e+00
9 4 1.599714704074107e-02
9 9 2.000000000000000e+00
10 9 6.085137338409772e-01
10 10 2.000000000000000e+00
11 1 9.406504903732960e-02
11 2 9.117651062733667e-01
11 11 2.000000000000000e+00
12 12 2.000000000000000e+00
13 13 2.000000000000000e+00
14 1 1.433703116953211e-01
14 7 5.395946537350288e-01
14 8 2.262791525118308e-01
14 9 1.696943084943097e-01
14 14 2.000000000000000e+00
15 15 2.159708045326890e+00
16 1 3.475387732625193e-01
16 2 1.843668841715423e-01
16 16 2.000000000000000e+00
17 5 4.291960626245961e-01
17 15 3.769886965758219e-01
17 16 6.181904301141916e-02
17 17 2.000000000000000e+00
18 2 5.694444366906898e-01
18 18 2.000000000000000e+00
19 19 2.000000000000000e+00
20 17 8.133694863130559e-01
20 19 5.176738094206512e-02
20 20 2.000000000000000e+00
21 11 2.632758256832364e-01
21 21 2.000000000000000e+00
22 3 3.483789442921590e-01
22 4 8.716747755835670e-01
22 18 3.831531559780702e-01
22 22 2.000000000000000e+00
23 1 9.039290528460883e-01
23 14 6.091837956883986e-01
23 23 2.000000000000000e+00
24 6 4.597935340831377e-01
24 24 2.000000000000000e+00
25 4 7.969814015072204e-01
25 11 8.343207120423889e-01
25 14 8.004000212838287e-01
25 25 2.000000000000000e+00
26 4 8.170462544031698e-01
26 11 8.906168312668122e-01
26 15 6.484418929834285e-01
26 18 4.705971169360081e-01
26 21 5.428824322979300e-01
26 26 2.000000000000000e+00
27 8 1.016583640049965e-01
27 16 7.510121727551101e-01
27 26 1.789762827151259e-01
27 27 2.000000000000000e+00
28 22 2.517759322271700e-01
28 27 5.403132677076319e-01
28 28 2.000000000000000e+00
29 3 2.446061981423989e-01
29 29 2.000000000000000e+00
30 3 7.627543854747729e-01
30 10 2.615895960080671e-01
30 16 2.421207606290373e-01
30 30 2.000000000000000e+00
31 14 5.610387252230727e-01
31 15 1.794577758581967e+00
31 24 5.689426510662752e-01
31 31 2.000000000000000e+00
32 4 4.953353469394421e-01
32 12 5.962223718022119e-02
32 17 2.742291710252260e-01
32 18 1.208374551442881e-02
32 25 2.964007265172286e-02
32 27 6.340996855258000e-01
32 32 2.950324768755786e+00
33 2 1.157320648945881e-02
33 7 2.987885386696905e-01
33 21 4.360606120923047e-01
33 25 9.615792611591886e-01
33 28 7.302828073539449e-01
33 33 3.677864147125332e+00
34 1 9.271074607455870e-01
34 6 6.846716617191897e-01
34 21 8.714037914261629e-01
34 34 2.000000000000000e+00
35 4 8.735342010653153e-01
35 6 1.000995128472533e-01
35 18 2.121305758663380e-01
35 22 2.825631987191661e-01
35 26 3.131683550827475e-01
35 33 8.755688159136135e-01
35 35 2.000000000000000e+00
36 14 6.599710045586776e-01
36 26 6.906798621824968e-01
36 29 7.740613190499227e-01
36 36 2.000000000000000e+00
37 37 2.000000000000000e+00
38 15 5.051688955984235e-02
38 32 6.510469250491324e-02
38 38 2.000000000000000e+00
39 6 2.616472520636087e-01
39 18 5.133779832839813e-01
39 39 3.264794528824274e+00
40 23 2.852999757948819e-01
40 28 1.692302309001269e-01
40 31 3.522798933142033e-01
40 35 1.486923062266033e-01
40 40 2.000000000000000e+00
41 1 4.243912084724271e-01
41 9 6.192432203827789e-01
41 12 2.321230745046443e-02
41 14 3.173336167380070e-02
41 20 7.106673065878765e-01
41 21 5.600929176752085e-01
41 26 5.793830837914070e-01
41 41 2.000000000000000e+00
42 31 9.294439897402434e-01
42 42 2.000000000000000e+00
43 14 1.331804627048628e-01
43 17 3.559267096208225e-01
43 36 9.019344250462051e-01
43 41 6.960783372315926e-02
43 43 3.053542566630636e+00
44 6 4.585152058676055e-01
44 11 4.434657157567778e-01
44 13 9.816027417145062e-01
44 20 4.961534392841938e-01
44 44 2.000000000000000e+00
45 14 3.786514712523662e-01
45 15 5.275533961458343e-01
45 22 7.687821328212519e-02
45 30 7.136930471456788e-01
45 45 2.000000000000000e+00
46 4 8.827048461502840e-03
46 13 4.554006571639151e-01
46 17 4.129328984826898e-01
46 39 8.553033215470632e-01
46 45 1.625905557812457e-01
46 46 2.000000000000000e+00
47 6 9.289506697490857e-01
47 8 2.831960058075507e-01
47 12 8.162321707394549e-01
47 34 3.726515493680828e-01
47 36 2.477705363155870e-01
47 38 6.045670666827484e-01
47 39 6.203819497656320e-01
47 41 6.061684266447835e-01
47 47 2.000000000000000e+00
48 3 1.782187658886043e-01
48 9 3.443748164053440e-01
48 21 7.574881720823031e-01
48 45 1.065906145798292e-01
48 48 2.000000000000000e+00
49 20 3.882802308542611e-01
49 33 1.976790842356820e-01
49 34 5.215278385543710e-01
49 42 6.740678940177103e-01
49 44 4.793555676002437e-01
49 49 2.000000000000000e+00
50 2 3.592095324895145e-01
50 37 5.527318705895392e-01
50 38 8.659566019448683e-01
50 42 1.153808977011888e+00
50 50 2.000000000000000e+00
51 8 9.461369177232423e-01
51 24 5.453672526693822e-01
51 27 7.107351786880580e-01
51 31 8.535902569444932e-01
51 36 7.675048387476743e-01
51 51 2.000000000000000e+00
52 8 3.581682082807616e-01
52 15 5.980847535232947e-02
52 27 5.156310553120325e-01
52 37 4.293648203891770e-01
52 48 4.935161363219270e-01
52 52 2.000000000000000e+00
53 2 1.469990471633538e-01
53 6 8.265673844485630e-01
53 25 1.125052234795254e-02
53 29 9.568687598478888e-01
53 40 1.132185775019268e-01
53 53 2.000000000000000e+00
54 5 1.872503617056993e-01
54 8 7.539834102251664e-01
54 29 5.922339717249658e-02
54 31 3.864486584836231e-01
54 32 2.808125471832376e-01
54 43 9.492992869069354e-01
54 45 6.161142358305238e-01
54 53 7.741933761274897e-01
54 54 2.000000000000000e+00
55 2 8.863756986523486e-02
55 29 6.402186661912898e-01
55 41 2.594137510857744e-01
55 50 1.708870357567915e-01
55 55 2.000000000000000e+00
56 4 1.221062042307943e-01
56 11 5.057868516673747e-02
56 16 3.108482709271602e-01
56 33 6.177283327469959e-01
56 56 2.000000000000000e+00
57 13 5.382088869798130e-01
57 15 2.305466802216518e-01
57 21 9.423728715025147e-01
57 26 8.184985592170105e-01
57 31 6.493666811378149e-01
57 35 6.576225939020224e-01
57 39 9.243639616856898e-01
57 42 7.887798316170611e-01
57 57 2.000000000000000e+00
58 5 5.878564159989407e-01
58 8 6.316401899250133e-01
58 39 9.480827133628600e-02
58 45 9.584538668483178e-02
58 51 4.088306165154789e-01
58 57 2.239136932034869e-02
58 58 2.000000000000000e+00
59 8 2.124184420245401e-01
59 37 4.955837559923661e-01
59 42 3.625762491690083e-01
59 45 7.612141906516384e-01
59 59 2.837748811365110e+00
60 25 3.957839471914162e-01
60 41 5.919201403772696e-01
60 50 7.377259346348460e-01
60 51 5.169704674268787e-01
60 53 3.216106002558217e-01
60 55 1.717391853688614e+00
60 58 5.498391211507286e-01
60 60 2.000000000000000e+00
61 14 5.778778532500544e-01
61 30 9.088140432263141e-01
61 46 9.482420845808465e-01
61 51 1.982379255770294e-01
61 61 2.000000000000000e+00
62 13 3.032014713842828e-01
62 18 6.217816286042562e-01
62 36 4.250663301510610e-01
62 49 2.274405893145777e-01
62 62 3.619119646953514e+00
63 2 3.465822537923546e-01
63 9 3.274340697180390e-01
63 22 3.930778832666987e-01
63 36 3.415578764659865e-01
63 63 2.000000000000000e+00
64 2 2.850032320874899e-01
64 14 9.046606130249449e-01
64 20 3.611634022710993e-01
64 24 9.566620807447695e-01
64 29 2.381190013492192e-01
64 31 2.397514163053502e-01
64 64 2.000000000000000e+00
65 8 5.680395025367562e-01
65 31 2.660023046300541e-02
65 37 7.631789961583855e-01
65 48 3.555953940810312e-01
65 65 2.000000000000000e+00
66 3 8.988741606264057e-01
66 12 3.137007258251130e-01
66 17 2.142478489420734e-01
66 20 7.841706868167898e-01
66 22 9.664786729045225e-01
66 23 9.381595606064592e-01
66 40 2.628008772881391e-01
66 54 2.832156270407578e-01
66 55 1.685651306134446e-01
66 64 8.052322768498420e-01
66 66 2.000000000000000e+00
67 3 8.679934226938952e-01
67 5 7.700349250621596e-02
67 10 8.520366172817615e-01
67 47 4.812936029793071e-01
67 54 2.961785821777418e-02
67 67 2.000000000000000e+00
68 8 6.184484702528894e-01
68 16 3.541800667980944e-01
68 25 4.244755610707073e-01
68 32 2.779832285024754e-01
68 52 6.874980866975120e-01
68 68 2.000000000000000e+00
69 12 1.316055494683492e-01
69 15 3.937536935298780e-02
69 21 6.165466891494674e-01
69 35 9.852042148733030e-01
69 37 2.983451414747906e-02
69 56 8.566720919544175e-01
69 59 5.729791713062578e-01
69 60 1.855861948809863e-01
69 69 2.000000000000000e+00
70 3 7.007918009092609e-01
70 16 8.070829198026205e-01
70 17 7.538093089126590e-01
70 30 9.826099070125561e-01
70 36 6.419515709043047e-01
70 53 4.116247843941262e-01
70 54 5.221044530119016e-01
70 63 4.917176441502034e-01
70 70 2.000000000000000e+00
71 1 9.243733805766495e-01
71 3 7.754396297266734e-01
71 9 8.486706988741405e-01
71 24 2.904848847640389e-01
71 34 1.782832282159881e-01
71 36 1.388722279159336e-01
71 40 9.498358817712576e-01
71 53 3.937653043783540e-02
71 57 4.250746647630197e-01
71 58 9.205229776060853e-01
71 65 8.875553009463553e-01
71 71 2.000000000000000e+00
72 3 6.066298480527220e-01
72 26 3.200997668317743e-01
72 30 5.628600074847734e-01
72 45 7.614807377203096e-01
72 65 6.809995141600522e-01
72 72 2.000000000000000e+00
73 6 6.980460422993325e-01
73 24 3.054512733545930e-01
73 31 5.411000517274180e-01
73 49 3.423162009713517e-01
73 59 4.330106455903996e-01
73 71 2.628997987518011e-02
73 73 2.000000000000000e+00
74 2 3.023055363804668e-01
74 9 9.617786886444568e-01
74 16 6.628357208945268e-02
74 22 9.787888706205283e-03
74 26 7.287087046016492e-01
74 47 2.030580691999674e-01
74 55 4.732237361061580e-01
74 56 1.755837128492468e-01
74 69 5.795941984312686e-01
74 74 2.000000000000000e+00
75 4 5.728968616834146e-01
75 7 7.731789782586551e-01
75 16 1.474364363225322e-01
75 23 4.762541692149254e-01
75 33 9.784531482143263e-01
75 44 6.251682323299085e-01
75 45 7.351587979194005e-01
75 58 6.454010448203540e-02
75 68 3.492322909091369e-01
75 69 8.642361699311809e-01
75 75 2.000000000000000e+00
76 3 1.541509466431121e-01
76 15 2.287794522190345e-02
76 18 2.609264657176050e-01
76 20 9.390576587903312e-01
76 32 2.577377238150196e-01
76 34 8.388063350231355e-01
76 66 3.066416976731857e-01
76 70 7.188292867718629e-01
76 71 9.076181048784876e-01
76 72 4.705789123563709e-01
76 75 1.947368560029543e-01
76 76 2.000000000000000e+00
77 10 7.763934240664878e-01
77 12 7.077891569099033e-01
77 15 9.382453534707986e-01
77 16 6.835503170576073e-01
77 20 6.591322038412064e-01
77 43 5.672686409277063e-01
77 55 8.362191377553202e-01
77 60 4.945832980456698e-01
77 68 3.233008750043811e-01
77 77 2.000000000000000e+00
78 6 9.866128566843088e-01
78 7 9.580345196896101e-01
78 16 3.933168111187052e-01
78 17 3.081940936594534e-01
78 21 1.093452073135029e-01
78 37 2.053036226788101e-01
78 42 5.587449971663800e-01
78 44 6.443638733499010e-01
78 53 4.930059060055663e-01
78 58 8.874279544980920e-01
78 69 3.694005711662379e-01
78 70 5.402090779019090e-01
78 76 2.463851278925965e-01
78 78 2.000000000000000e+00
79 2 5.739461797217537e-01
79 7 8.377755153680563e-01
79 8 1.524389224588959e+00
79 10 9.814280804800964e-01
79 26 8.125627103908734e-01
79 28 8.594972509654798e-01
79 34 9.858955209217558e-01
79 38 4.667058849215976e-01
79 79 2.000000000000000e+00
80 5 1.672149158426884e-01
80 10 7.122943875664892e-01
80 27 4.052463279063920e-01
80 39 2.287136051356459e-01
80 45 5.986702575069638e-01
80 72 8.817252406994202e-01
80 80 2.000000000000000e+00
81 22 6.546209352003144e-01
81 42 1.014434970417846e-01
81 48 1.891254830980689e-01
81 51 1.164547558586031e-01
81 55 7.802062580729546e-01
81 63 3.067700357373875e-01
81 73 4.892154797499948e-02
81 77 7.440430806908699e-01
81 81 2.000000000000000e+00
82 9 1.171535000762728e-01
82 17 3.388934234786360e-01
82 30 2.918649833997277e-01
82 38 2.861751057718920e-01
82 49 1.427076692139184e-01
82 51 1.434721040137837e+00
82 55 3.539631310924124e-01
82 56 1.196945019459935e+00
82 69 7.662535161481369e-01
82 82 2.000000000000000e+00
83 9 1.068243882117305e+00
83 11 7.799125785441191e-01
83 24 4.311396021160598e-01
83 30 4.288280097068859e-01
83 41 8.605221394916002e-01
83 42 1.300815718918176e-01
83 47 6.188922311384750e-01
83 55 6.191318700471140e-01
83 56 4.903138189633014e-01
83 78 9.285721953957478e-01
83 83 2.000000000000000e+00
84 7 6.462727180159138e-01
84 8 3.112569228866960e-01
84 14 8.951919995171636e-01
84 29 9.971154717121016e-01
84 32 2.379366817213978e-01
84 35 4.058791077436156e-01
84 58 9.465073224704517e-01
84 65 5.755993468673558e-01
84 76 9.802983319862062e-01
84 84 2.000000000000000e+00
85 8 2.407766832649483e-02
85 11 7.911255902100085e-01
85 27 3.170807589156222e-02
85 61 9.686573777887763e-01
85 71 3.782192168994463e-01
85 76 9.627786876851664e-01
85 78 5.915217678953557e-01
85 85 2.000000000000000e+00
86 9 6.030682627528046e-01
86 15 7.196831530826893e-01
86 22 1.464119879081667e-01
86 25 6.639442396805569e-01
86 35 4.672309527508142e-01
86 39 1.737141032076227e-01
86 41 8.774319489564305e-01
86 42 7.065900589026224e-01
86 48 9.436600258034737e-01
86 49 1.649067438467001e-01
86 79 6.194581006577077e-01
86 80 8.238164771672455e-01
86 86 2.000000000000000e+00
87 4 1.562839585096270e-01
87 23 7.107747087859662e-03
87 59 7.025549869626508e-01
87 79 7.446482409555752e-01
87 87 2.000000000000000e+00
88 8 1.312396425349227e-01
88 9 2.933234764366764e-01
88 44 2.759583257533830e-01
88 58 9.163458535949663e-01
88 61 5.183146399420748e-01
88 65 9.916735495337348e-01
88 85 2.678956269091766e-01
88 88 2.000000000000000e+00
89 10 6.206026775939912e-01
89 42 5.808322592519212e-01
89 47 9.149446288475109e-01
89 55 7.567913427452954e-01
89 63 1.171560831197033e-01
89 68 1.013083668229141e-01
89 73 4.627870698888703e-01
89 79 4.927622733435041e-01
89 89 2.000000000000000e+00
90 18 4.648703705992271e-01
90 22 7.336052936435724e-01
90 28 2.243798542804287e-01
90 34 5.893610519960747e-01
90 43 6.558272339268428e-01
90 47 1.137202692341552e+00
90 58 1.732498877238859e-01
90 90 2.000000000000000e+00
91 6 9.776611848037303e-01
91 11 5.754706676564200e-01
91 13 7.367291487334057e-01
91 27 9.257389877333310e-01
91 36 3.555650602170830e-01
91 64 3.535288068878040e-01
91 69 6.883660541620300e-01
91 86 5.467554467301879e-01
91 88 3.265578181673106e-01
91 91 2.000000000000000e+00
92 4 9.855184989571174e-01
92 7 1.407967677997657e+00
92 34 7.798295061830441e-01
92 45 8.006823564264145e-01
92 65 9.712051611903979e-01
92 92 2.000000000000000e+00
93 35 3.785668501891366e-01
93 63 1.640255912099335e+00
93 82 6.008748920952612e-01
93 87 4.740090217476625e-01
93 93 2.000000000000000e+00
94 12 2.862037404555897e-01
94 29 1.690939569516098e-01
94 30 5.628618672813389e-01
94 37 4.926955815009496e-01
94 45 4.204358946137554e-01
94 50 2.521525920588158e-01
94 60 2.200899320869169e-01
94 63 8.311954563237969e-01
94 75 9.527596970216541e-01
94 82 6.143609437085114e-01
94 94 2.000000000000000e+00
95 9 1.250254989198936e-01
95 13 1.507354834807832e-01
95 27 5.501211969863894e-01
95 36 2.189784509842382e-01
95 39 9.393103630055759e-01
95 44 8.152609187205451e-02
95 49 1.243082992512724e-01
95 54 2.204743254830838e-01
95 93 3.766631390025658e-01
95 95 2.000000000000000e+00
96 3 7.698836079771307e-01
96 4 2.338432555961296e-01
96 10 1.311131862451895e+00
96 21 1.258832389562611e-01
96 26 5.820435784805732e-01
96 32 4.238200548722268e-01
96 35 1.449215523381365e-01
96 45 4.932114395719891e-01
96 46 6.405155685655961e-02
96 49 8.962267737783524e-01
96 72 9.046034835440229e-01
96 96 2.000000000000000e+00
97 1 7.891203124213286e-02
97 5 7.913626785148384e-01
97 12 7.733086427256216e-01
97 15 8.493187318800468e-01
97 36 8.166215242927363e-01
97 38 3.353816082269101e-01
97 45 2.146184362086917e-01
97 46 9.236760450107129e-01
97 62 7.490386553136391e-01
97 82 3.341145118559744e-01
97 88 6.649252506464093e-01
97 92 6.102432742523487e-01
97 94 9.232768398517497e-01
97 97 2.000000000000000e+00
98 2 8.747517831537248e-01
98 9 1.756556934911625e-01
98 45 7.939603459079220e-01
98 46 9.112351296955958e-01
98 59 8.971277916691947e-01
98 60 2.670897771755681e-01
98 64 7.576050492125930e-02
98 66 1.630169903355215e-01
98 78 7.249394406104555e-01
98 91 1.547068818625965e-01
98 94 8.766526061027464e-01
98 98 2.000000000000000e+00
99 17 8.114452100924915e-01
99 19 1.838666414479411e-01
99 35 2.327052089391236e-01
99 37 1.956891735804194e-01
99 47 7.431591383591762e-02
99 50 2.602189323248570e-01
99 63 5.316797785898112e-01
99 64 4.190719581193387e-01
99 81 9.475769333231167e-01
99 82 9.010352503184775e-01
99 99 2.000000000000000e+00
100 3 7.071016338003999e-03
100 12 3.080108977052737e-01
100 20 4.110244006653927e-01
100 23 2.824620621007623e-02
100 34 3.330372640547401e-01
100 35 4.039550434871054e-01
100 41 6.290614046926778e-01
100 45 4.404833616254977e-02
100 55 7.797407717875188e-01
100 62 9.221847567885455e-02
100 78 2.043983436620798e-01
100 93 2.527517724612049e-01
100 96 5.263261369356483e-01
100 100 2.000000000000000e+00
101 5 4.107969985443471e-01
101 10 1.787210359671552e-01
101 12 9.892342999379551e-01
101 19 6.818786260260554e-01
101 22 5.842779223576656e-01
101 26 8.273648712046098e-01
101 42 5.964533811620116e-01
101 43 2.961627302607507e-01
101 47 7.319061257709644e-01
101 51 8.579425317744162e-01
101 61 2.754529722464739e-01
101 65 1.917978658227096e-01
101 72 2.748668983883623e-01
101 79 4.354760923618203e-01
101 85 3.392585877344609e-01
101 101 2.000000000000000e+00
102 17 1.392187935173769e-01
102 23 1.707269317424707e-01
102 28 7.987536228167271e-01
102 49 4.529013004399564e-01
102 58 8.395492084141698e-03
102 64 5.342612744754971e-02
102 87 5.799917570351172e-01
102 98 6.287731192513989e-01
102 102 2.000000000000000e+00
103 5 6.690362901245717e-02
103 7 3.147282403958150e-01
103 16 6.691913888076390e-01
103 51 2.885768529193635e-01
103 52 3.487783271417455e-02
103 54 9.678609416065774e-01
103 60 8.956271312033992e-01
103 76 8.829470999053262e-01
103 98 7.384634080816400e-01
103 103 2.000000000000000e+00
104 7 7.299645814204540e-01
104 8 4.407517233326279e-01
104 37 8.810697192776914e-01
104 46 5.769059035448698e-01
104 51 1.058304120785680e-01
104 65 3.356289924741156e-01
104 72 2.586253924864720e-01
104 94 8.129038546502242e-01
104 100 3.583455086728586e-01
104 104 2.000000000000000e+00
105 10 8.908513873591829e-01
105 16 1.559640192182956e-01
105 19 1.274703547852413e-01
105 21 5.733456214756034e-01
105 27 4.612855762564571e-01
105 36 3.924516888622668e-01
105 39 6.502963080906798e-01
105 46 3.324993726796384e-01
105 57 6.600581725838680e-01
105 68 7.425812233716312e-01
105 77 6.248104890245506e-01
105 81 3.977418568978938e-01
105 85 8.814713898934410e-01
105 89 6.077081673741014e-01
105 92 6.311432892894355e-01
105 105 2.000000000000000e+00
106 13 3.128203077167946e-02
106 16 5.727231845118356e-01
106 17 5.043349774966638e-01
106 19 9.924483202994093e-01
106 48 5.874302868858819e-01
106 56 6.615633317405374e-01
106 68 8.168514558660767e-02
106 73 2.657315771775673e-01
106 82 4.825964382791672e-01
106 99 6.369195053825100e-01
106 106 2.000000000000000e+00
107 21 9.644985248639408e-01
107 37 7.013927662860725e-01
107 40 5.280521374355123e-01
107 41 7.153947466157659e-01
107 56 7.354768921709229e-01
107 62 6.684652551688978e-01
107 76 9.074820069524830e-01
107 85 1.239325126539361e-01
107 87 2.052543426309417e-01
107 88 6.594974904588677e-01
107 107 2.000000000000000e+00
108 3 8.292316927497501e-01
108 11 2.477058879907580e-01
108 13 6.462235278246794e-01
108 15 6.989605741087013e-02
108 29 1.342779668619833e-01
108 35 9.988163452552418e-01
108 38 9.314039483761962e-01
108 44 3.865644716927954e-01
108 56 8.215042154073430e-01
108 61 5.807636033171890e-01
108 63 7.196265745161413e-01
108 82 3.782559115526495e-01
108 92 7.904682609600729e-01
108 94 9.379389398480542e-01
108 97 8.908053737012341e-01
108 108 2.000000000000000e+00
109 12 3.466903770292518e-01
109 15 6.226393527026114e-01
109 16 8.059984545567070e-01
109 34 3.569737992012835e-01
109 40 2.072833058490737e-01
109 42 9.927512732519512e-01
109 44 6.788457354791262e-01
109 53 6.681504321162079e-01
109 67 1.996500115060723e-01
109 72 6.757053615199571e-02
109 98 5.400083521595780e-01
109 109 2.000000000000000e+00
110 1 2.057020728562287e-03
110 3 1.815226334539579e-01
110 6 9.740681163997013e-01
110 14 6.709822323852350e-01
110 62 8.603324688293574e-01
110 88 6.232136782009433e-01
110 93 4.253054374775831e-01
110 94 9.851693310515356e-01
110 101 5.968367119959418e-01
110 110 2.000000000000000e+00
111 15 7.697334025740443e-01
111 18 3.987653868298564e-01
111 71 1.588575359851115e-01
111 72 7.736845629944250e-01
111 79 8.218499303961890e-01
111 92 1.293563662123552e-01
111 96 7.434360917776291e-01
111 101 2.006111435751532e-01
111 111 2.000000000000000e+00
112 2 2.925881622402818e-01
112 10 2.111241942157452e-01
112 11 5.417304293339414e-01
112 37 3.844609892537895e-01
112 42 3.575947771986134e-01
112 52 2.448115267658909e-01
112 77 1.889655747315986e-01
112 84 6.356089965451698e-01
112 91 7.250759105109018e-01
112 96 9.492560846867855e-01
112 112 2.000000000000000e+00
113 29 1.757994518774983e+00
113 31 8.920733717347800e-01
113 47 4.411015949461905e-02
113 48 9.140154920365512e-01
113 49 9.499076093309543e-01
113 55 7.487203746882343e-02
113 57 4.117495290112663e-01
113 74 1.490878888301850e-02
113 91 5.612519625109620e-01
113 109 1.096670389767530e-01
113 113 2.000000000000000e+00
114 3 2.706065404711533e-02
114 10 2.548490544752042e-01
114 44 4.679185076794123e-02
114 45 2.151569661107554e-01
114 46 9.606436790815472e-01
114 66 6.749764657443258e-05
114 68 4.112158094824790e-01
114 69 1.827551473835698e-02
114 75 8.741743690436998e-01
114 114 2.000000000000000e+00
115 2 5.968299845957925e-02
115 3 2.350594300419223e-01
115 11 2.269899323477610e-01
115 13 3.229101712660809e-02
115 18 3.427342698673767e-01
115 23 4.122064169144426e-01
115 28 2.337355318085463e-01
115 32 3.545710472594588e-01
115 49 8.616295737811096e-01
115 54 2.643436626381748e-01
115 72 7.468647111345378e-01
115 80 1.608024235766119e+00
115 88 2.399066519221265e-01
115 89 1.469658410085412e-01
115 92 5.819151551265778e-01
115 94 6.807121206133804e-01
115 99 5.175418053439091e-01
115 106 6.236669082566249e-01
115 110 7.770709913228750e-01
115 115 2.000000000000000e+00
116 13 7.847466461227506e-01
116 15 5.405930888183397e-01
116 26 1.935172554061975e-01
116 33 7.034578431096701e-01
116 46 1.145620433960481e-01
116 59 9.734019561875338e-01
116 82 4.186730392715157e-01
116 87 8.302956496029398e-01
116 88 3.336011791641921e-01
116 97 8.909090279612357e-01
116 106 4.241789912069983e-01
116 116 2.000000000000000e+00
117 1 3.421436415467373e-01
117 11 9.977444210068506e-01
117 25 1.969392217882049e-02
117 88 6.156498982898608e-01
117 95 9.144557322680581e-01
117 100 6.392625620879236e-01
117 105 9.695752884813924e-01
117 106 2.622679054991750e-01
117 117 2.000000000000000e+00
118 1 8.737353029534390e-01
118 21 3.115736716735894e-01
118 42 1.116424734363485e+00
118 50 6.897557615389457e-01
118 55 8.101532098961717e-01
118 62 7.962770109584505e-01
118 70 2.000821403980844e-01
118 71 9.987804057487236e-01
118 76 8.494680259854749e-01
118 78 2.519308046823033e-01
118 94 8.148759623433116e-01
118 118 2.000000000000000e+00
119 16 6.869219076574815e-01
119 17 6.605268899866162e-01
119 23 7.536958926347542e-01
119 25 8.200577899746641e-01
119 29 7.069320298023235e-01
119 58 3.355574000420013e-01
119 60 6.613426119979924e-01
119 71 9.920715504965113e-01
119 73 3.443679845410719e-04
119 78 3.486674102117479e-01
119 82 9.056847350186104e-02
119 86 9.791511617091211e-01
119 87 3.982576200966563e-01
119 88 3.023800188134036e-01
119 95 3.307878202070063e-01
119 98 8.971704995968602e-01
119 100 2.140009017117241e-01
119 102 4.542987889209728e-01
119 119 2.000000000000000e+00
120 7 4.948946073737470e-01
120 19 1.500397642908768e-01
120 55 8.970979312064055e-01
120 61 1.824574866514910e-01
120 76 3.874027205942633e-01
120 94 2.671388454934603e-01
120 96 6.168365907684797e-01
120 99 6.763168034302147e-01
120 116 3.627860229869968e-01
120 120 2.000000000000000e+00
121 18 5.015949999579754e-01
121 21 6.642497838951816e-01
121 23 1.464989331178100e-01
121 44 5.994537733200799e-01
121 72 7.538704532567183e-01
121 88 8.174437864369164e-01
121 94 8.221713407588145e-01
121 101 1.141245638827521e+00
121 121 2.000000000000000e+00
122 2 2.275514275662904e-01
122 20 7.538048620602198e-01
122 33 1.907164040412392e-01
122 39 5.722105936046746e-01
122 42 5.098080808478265e-01
122 54 4.590165557812687e-01
122 62 3.683523574883749e-01
122 71 2.855081664163914e-01
122 85 2.694931546624787e-01
122 97 8.986357546727757e-01
122 113 6.321651648399242e-01
122 122 2.000000000000000e+00
123 3 6.873377015489488e-01
123 12 1.945586281454659e-02
123 29 3.848901349691817e-01
123 36 1.104729260547440e-01
123 37 9.671761782897036e-01
123 44 1.870882311532073e-01
123 46 5.466370187949016e-01
123 60 5.727664584278659e-01
123 63 3.888864371758042e-01
123 83 2.135191808550664e-01
123 84 3.231094924032590e-01
123 123 2.000000000000000e+00
124 2 4.993752792064053e-01
124 7 4.306420821738246e-01
124 8 2.174767398104167e-01
124 9 5.475096478124564e-01
124 17 8.630674008104391e-01
124 21 5.550370305569938e-01
124 32 5.555174259309789e-01
124 65 1.851834381011437e-01
124 73 5.789696640162457e-01
124 95 2.637461952768266e-01
124 104 3.616923178987138e-01
124 124 2.000000000000000e+00
125 4 2.760695368120363e-01
125 24 6.648359063687347e-01
125 40 9.160839855813753e-01
125 56 1.417081095343464e-01
125 63 1.555680607653687e-01
125 64 2.945922192108688e-01
125 70 6.748524147193492e-01
125 98 7.645320298574758e-01
125 103 3.552618131385283e-01
125 106 9.917556495045424e-01
125 112 7.565260198068502e-02
125 114 7.488902273187731e-01
125 125 2.000000000000000e+00
126 3 5.758276467140232e-01
126 12 1.070738497153348e-01
126 17 7.461320901894020e-02
126 22 6.011709286068252e-01
126 28 5.872293437433140e-02
126 46 8.018524083906036e-01
126 66 5.939062602255979e-01
126 70 1.004636086597058e-01
126 87 3.837173105386998e-01
126 95 5.086077993372543e-01
126 100 1.918047916345881e-01
126 108 3.203512748736276e-01
126 126 2.000000000000000e+00
127 5 9.040357397387380e-01
127 29 7.532411971411207e-01
127 32 4.011599072475209e-01
127 35 7.484885048556311e-02
127 40 3.968611722025358e-01
127 73 5.221292935847855e-01
127 95 1.066367634288170e-01
127 96 2.779047474520616e-01
127 100 3.762861751049801e-01
127 113 3.573545588022475e-02
127 127 2.000000000000000e+00
128 5 7.201869343191708e-01
128 7 2.730111180930684e-01
128 25 2.049152914519403e-02
128 37 7.760960138390484e-01
128 56 4.210208945631432e-01
128 57 9.068089648367024e-01
128 59 3.608185845433303e-01
128 84 2.329512616236316e-01
128 85 2.387664167620420e-01
128 87 3.972706518419893e-01
128 90 4.276484305156512e-01
128 112 3.003446282516115e-01
128 116 9.130881780519390e-01
128 125 1.171201992361482e+00
128 128 2.000000000000000e+00
129 1 7.659916396919384e-01
129 13 2.714878861425558e-01
129 20 7.061923482981550e-01
129 23 8.280902896905251e-02
129 26 5.550024723763950e-01
129 32 1.514698902603583e-01
129 38 1.580485826015980e-01
129 50 4.564239952731031e-02
129 62 3.102526862504907e-01
129 63 5.080936577427876e-01
129 100 8.808766364849033e-01
129 104 3.493652026597552e-01
129 126 5.071605909258210e-01
129 127 2.509735549699810e-02
129 129 2.000000000000000e+00
130 4 1.265221715036069e-01
130 64 7.478230512642436e-02
130 93 3.699062319964330e-01
130 94 1.687739085793938e-02
130 101 8.041410224146459e-01
130 125 3.330445409266838e-01
130 128 7.214044133839546e-01
130 130 2.000000000000000e+00
131 5 4.069710304280071e-01
131 7 7.504902434710338e-01
131 10 9.513862184004778e-01
131 14 2.358429989432753e-01
131 20 7.595721921569119e-01
131 43 4.435198804758284e-01
131 58 4.372201276582013e-01
131 74 6.796612273970557e-01
131 78 7.058462540441491e-01
131 84 7.445525962037662e-01
131 90 9.029128353539181e-01
131 113 8.269221529683999e-01
131 115 3.236376683391217e-01
131 118 7.401728402367118e-01
131 127 9.546730079404708e-02
131 131 3.994847946962179e+00
132 7 2.731398756050500e-01
132 8 2.691563776114276e-01
132 9 3.983699808271085e-01
132 12 4.966668199601652e-01
132 60 6.381445683721739e-01
132 70 2.873573707628548e-01
132 74 1.077422387316821e-01
132 77 1.350479987278034e-01
132 79 9.354561556059762e-01
132 84 6.046743561687918e-01
132 86 9.691672663905854e-01
132 91 5.752532400931103e-01
132 92 6.231829614002929e-01
132 97 8.763120495828826e-01
132 100 1.859279462484820e-01
132 132 2.000000000000000e+00
133 3 7.547089786435660e-01
133 35 5.844304365565719e-01
133 41 2.042636021028738e-01
133 45 5.620211823041872e-01
133 48 5.964756793950441e-01
133 66 5.846928752483821e-01
133 69 3.001807376189870e-01
133 78 4.378182966056196e-01
133 105 5.372319091694522e-01
133 108 6.466766889940057e-01
133 111 4.852142374716006e-01
133 117 5.897929998451251e-01
133 119 8.607105232969884e-01
133 121 6.421639887057075e-01
133 133 2.000000000000000e+00
134 11 6.858154331217676e-01
134 19 8.187641025513349e-01
134 20 6.734359014991852e-01
134 36 4.189709503827787e-01
134 45 3.601556895557724e-01
134 49 9.092227571041466e-01
134 65 2.465391978769417e-01
134 93 8.410569360307546e-01
134 123 3.512254043741549e-01
134 127 5.471279542305324e-01
134 132 2.842775476906558e-01
134 134 2.000000000000000e+00
135 4 8.537630041248534e-01
135 19 6.643716250603005e-02
135 26 6.489493487944870e-01
135 37 3.194308692210626e-01
135 40 6.492196335416387e-01
135 59 7.768996558795831e-01
135 76 3.888067831487092e-01
135 83 6.288675952950463e-01
135 94 8.253659245291688e-01
135 96 8.991271010066118e-01
135 97 8.422741026331160e-01
135 105 1.172205881945817e-01
135 108 5.571564196202363e-01
135 109 5.486739234330212e-01
135 118 9.181725432440743e-01
135 126 4.179178859880456e-01
135 131 7.085325268931634e-01
135 135 2.000000000000000e+00
136 4 4.325612408464108e-01
136 20 2.151340632138707e-01
136 31 7.928105616351604e-01
136 32 4.168302248640449e-01
136 34 7.857426131225226e-01
136 44 7.726874368954841e-01
136 48 1.203903604653991e-01
136 54 7.977779628049182e-01
136 55 4.081978320914320e-01
136 60 6.017042846555698e-01
136 62 5.992874030568341e-01
136 65 4.069477234702845e-02
136 85 4.431019024958478e-01
136 89 3.559377266885211e-01
136 90 2.573979790803852e-01
136 108 5.488465553127485e-01
136 121 8.438391468633399e-01
136 125 9.404733630614383e-01
136 131 7.192401873357440e-01
136 136 2.000000000000000e+00
137 4 5.766327978837642e-01
137 5 1.671383617782563e-01
137 6 6.623305523040228e-01
137 8 4.129665927646400e-01
137 9 5.659276445453306e-01
137 30 9.909378222590475e-01
137 48 3.910243534224334e-02
137 53 1.491747144542556e-01
137 92 5.901266567304986e-02
137 97 5.800486593363733e-01
137 117 2.402387280778184e-01
137 137 2.000000000000000e+00
138 1 8.205430781099762e-01
138 16 1.008314788622754e-01
138 37 9.367015645071273e-01
138 60 6.801979008565308e-01
138 76 4.328058745504877e-01
138 80 2.135031726449758e-01
138 94 8.107417039291889e-01
138 105 6.784971974719621e-01
138 137 5.035326258967027e-01
138 138 2.000000000000000e+00
139 14 3.437247238281604e-01
139 26 7.683680685907631e-01
139 40 8.700487660816937e-01
139 41 2.148485095202679e-01
139 48 7.438247703851323e-01
139 88 4.142290156058561e-01
139 98 8.453361850586673e-01
139 108 7.633812541131713e-02
139 116 6.534434586108001e-01
139 119 2.071769274864104e-01
139 139 2.000000000000000e+00
140 10 1.247430781370864e-01
140 18 6.743257244310511e-01
140 22 1.893557885383998e-01
140 43 7.282697341334762e-01
140 44 3.643227571975998e-01
140 50 6.419341397657210e-01
140 80 2.242870364929593e-01
140 84 3.892602973310468e-01
140 90 6.152492052170976e-01
140 102 9.577296130122148e-03
140 140 2.000000000000000e+00
141 4 7.737524712106747e-01
141 11 6.765919894669901e-01
141 57 9.034432902155357e-01
141 70 8.527781802855218e-01
141 73 3.750480789552455e-01
141 79 2.799393105637993e-01
141 119 2.219973878067167e-01
141 132 9.917162919088801e-01
141 133 3.695524206728210e-01
141 137 8.250000290155658e-01
141 141 2.000000000000000e+00
142 13 9.666777542502296e-01
142 14 6.683285661931303e-01
142 24 2.061315883586468e-02
142 30 1.013224163791591e-01
142 33 9.328750797401246e-01
142 43 7.905117650912953e-01
142 54 7.858716640665898e-01
142 56 2.467268031685463e-01
142 75 2.917193238773741e-01
142 77 6.129475283544884e-01
142 84 1.444230862644985e-01
142 97 7.206270065260263e-01
142 101 6.601602587447604e-01
142 104 5.731304651933244e-02
142 108 9.387329080433752e-01
142 130 5.467159459447247e-01
142 136 8.499628782918436e-01
142 142 2.000000000000000e+00
143 8 3.555683549610582e-01
143 11 8.249547142166315e-01
143 34 5.982466000510639e-01
143 39 1.470309405204828e-01
143 54 6.623486401114509e-01
143 85 7.686478356499837e-01
143 88 4.797966121165509e-02
143 102 4.953798172859805e-01
143 106 7.013484423745502e-01
143 108 9.842813302596888e-01
143 142 1.689844095595593e-01
143 143 2.000000000000000e+00
144 2 9.070081212606208e-01
144 5 9.543812269791161e-01
144 25 5.507026779810960e-01
144 27 3.285354769569482e-01
144 31 9.816472365702749e-01
144 37 1.233536131790713e-01
144 43 7.389214521353393e-02
144 63 1.809731153658678e-01
144 66 8.687327966579836e-01
144 73 8.148962902529736e-01
144 81 3.346408444635639e-01
144 98 6.626234059443337e-02
144 101 7.974328216537602e-01
144 106 2.076113655684428e-01
144 120 2.777109419083764e-01
144 123 1.280733263042699e-02
144 136 9.352688410954316e-01
144 138 6.741874108086551e-01
144 144 2.000000000000000e+00
145 1 1.039918878818957e-02
145 9 7.675685623061896e-01
145 14 4.349178801251945e-01
145 20 4.809825595833519e-01
145 61 9.193580655184158e-01
145 71 1.951519685749190e-01
145 81 5.886979536143918e-01
145 83 6.775413160224109e-01
145 105 1.231267406144485e+00
145 108 2.630252328845673e-01
145 115 2.122282662854852e-01
145 139 5.455026263868251e-01
145 142 7.422223837867996e-01
145 145 2.143399498846204e+00
146 9 1.979950616568162e-01
146 29 3.027146650237706e-01
146 50 8.905727342437824e-01
146 64 8.692584708267963e-01
146 68 2.967478331065194e-01
146 73 4.649246471158478e-01
146 82 4.870488766830143e-01
146 86 7.303284217260710e-01
146 92 4.495633348948735e-02
146 96 1.962018310955327e-03
146 121 8.855425197191036e-02
146 124 6.763487620124620e-02
146 128 6.799760701610699e-01
146 129 9.335941719120803e-01
146 146 2.000000000000000e+00
147 20 4.764094341273795e-02
147 21 6.426227549480159e-01
147 27 7.556758890720988e-01
147 32 1.162038629973171e-01
147 35 3.291776892011213e-01
147 43 4.826070805923389e-01
147 61 3.760347095945443e-01
147 64 5.711367094613602e-01
147 71 4.748913058227510e-01
147 76 6.163796046156383e-01
147 89 4.024471271697115e-01
147 109 6.166756029300201e-01
147 111 1.532319700332267e-01
147 136 3.439032005830897e-01
147 142 6.791027618365744e-01
147 147 2.000000000000000e+00
148 40 9.609586850621427e-01
148 49 8.659462867988920e-01
148 58 9.838102558617108e-01
148 89 1.817595715874749e+00
148 102 9.585780706695635e-02
148 110 2.605024514540651e-01
148 111 8.835945348609719e-02
148 118 7.260143543149040e-01
148 148 2.000000000000000e+00
149 10 5.695177184992194e-01
149 12 5.120132457687949e-01
149 18 5.073002325642498e-01
149 19 9.098539533981457e-01
149 26 3.764455125315050e-01
149 38 2.605231974457500e-01
149 45 9.904033184215233e-02
149 61 4.425347781294708e-01
149 72 6.743635818647555e-01
149 75 3.090236060561856e-01
149 80 2.165471645533312e-01
149 87 1.628103879798618e-01
149 94 8.162703974314898e-01
149 95 3.238697679038117e-01
149 114 5.150969326029590e-01
149 142 3.275005035089005e-01
149 149 2.000000000000000e+00
150 11 5.667566533647250e-02
150 40 1.063667405226985e-01
150 43 5.891829926120628e-01
150 71 2.817261130510462e-02
150 85 8.358608111858811e-01
150 99 8.061766800738255e-01
150 108 1.677539558655362e-01
150 114 1.319053932554447e-01
150 127 6.601760977729654e-01
150 130 6.476055105817147e-01
150 135 8.353493795084933e-01
150 137 8.745020922826776e-01
150 139 3.296690054983669e-01
150 142 5.070797990727135e-01
150 150 2.000000000000000e+00
151 3 9.242557264380008e-01
151 11 2.173488795708128e-01
151 13 8.981894012728220e-02
151 24 2.774222677263860e-02
151 33 6.179700343435437e-01
151 45 5.516523238192358e-01
151 60 8.439049603687643e-02
151 62 1.120281553133321e-01
151 70 8.289539343066296e-01
151 73 4.957924232990394e-01
151 78 9.012133597543367e-01
151 85 4.462188185821871e-01
151 96 4.125516036295662e-02
151 118 3.347447658590538e-01
151 121 8.224367725120640e-02
151 124 2.865112858997030e-01
151 136 4.682561245740561e-01
151 149 9.057725777203739e-01
151 151 2.000000000000000e+00
152 2 7.859476911599528e-02
152 5 3.771075883381082e-01
152 32 3.185140375402786e-01
152 49 9.450357350836177e-01
152 58 3.212162988963623e-01
152 72 7.717803522849628e-01
152 77 6.477136048283672e-02
152 80 6.620602104170192e-01
152 84 1.142937377665961e+00
152 92 2.286190964403588e-01
152 94 1.597986037890257e-01
152 96 4.668235444073195e-01
152 102 8.604166115813455e-01
152 106 8.783431501234051e-02
152 119 7.159380248840443e-01
152 120 9.262030165625189e-01
152 126 9.531328593075122e-01
152 132 9.432671888373227e-01
152 150 8.178604040080506e-01
152 152 2.000000000000000e+00
153 5 9.597705144601215e-01
153 11 1.072909464919471e-01
153 21 9.005885678697881e-01
153 27 7.179711067410288e-01
153 42 9.905648748916949e-01
153 47 5.570259125431491e-01
153 53 9.116553391637930e-01
153 68 7.608740520772744e-01
153 70 1.243723437845878e-01
153 87 3.862819866096155e-01
153 91 5.206900875440511e-01
153 102 5.313576195948849e-01
153 118 7.134080637109191e-01
153 133 3.595176921225405e-01
153 153 2.000000000000000e+00
154 5 9.715974345719003e-02
154 31 3.267523893783747e-01
154 41 5.326122146410032e-01
154 42 2.965123516367174e-01
154 48 7.313023974546073e-02
154 63 4.772084919532584e-01
154 75 5.299894378050086e-01
154 77 7.828270199584491e-01
154 78 4.674122870683511e-01
154 80 6.783338297091906e-01
154 85 5.176546121833726e-01
154 89 2.890080443409515e-01
154 91 8.845009632651588e-01
154 92 5.104502346762440e-01
154 118 6.397438794833459e-01
154 129 9.764706728481991e-01
154 132 7.665533703397310e-01
154 138 7.255902423361753e-01
154 143 3.514126411299668e-01
154 146 9.648739456795062e-01
154 154 2.521336791335216e+00
155 22 3.043193475254390e-01
155 29 6.286406516738093e-01
155 30 7.719734107089788e-01
155 38 1.971958645303916e-01
155 67 5.343144197853958e-01
155 70 3.831656604133082e-02
155 85 4.710189100186823e-01
155 89 6.836246899911500e-01
155 106 2.186355259137873e-02
155 125 8.332949715204067e-01
155 135 7.849492188798577e-01
155 155 2.000000000000000e+00
156 19 8.433108942612412e-01
156 34 6.670749088219743e-01
156 44 1.862501844592160e-01
156 59 7.222157275550722e-02
156 65 8.388663657643962e-01
156 68 6.677818990302073e-01
156 73 8.409232614634595e-01
156 82 3.594788119601777e-02
156 93 7.030483956698775e-01
156 95 5.317328667648757e-02
156 115 5.784069497708648e-01
156 120 1.272954140037604e-01
156 134 3.933595464831485e-01
156 144 5.046230323322876e-02
156 156 2.000000000000000e+00
157 21 1.066182471297983e-01
157 22 6.729236306597121e-01
157 30 8.948439124613009e-01
157 67 8.746814531539625e-01
157 71 8.556366241949785e-01
157 129 3.831545588352679e-01
157 157 2.000000000000000e+00
158 6 8.349206432512698e-01
158 8 8.836999245975360e-01
158 14 9.522754503465832e-01
158 45 4.988830555572299e-01
158 59 1.448868615928867e-02
158 63 7.414594688425534e-01
158 88 1.443754979829283e-01
158 95 7.605054237190636e-01
158 101 2.336560462577157e-01
158 108 8.430692727250630e-01
158 121 1.809308147420895e-01
158 144 3.161070551278314e-01
158 146 6.335179569538247e-01
158 158 2.000000000000000e+00
159 9 7.853699717110894e-01
159 11 6.503845972119326e-02
159 15 3.342064418312656e-01
159 49 3.991824959691026e-01
159 50 8.471411637080151e-02
159 58 1.455294617147674e-01
159 60 6.425720124246421e-01
159 65 8.466396317724039e-01
159 70 8.722643373201615e-01
159 73 9.106957964263788e-01
159 88 6.338489629950839e-02
159 91 4.115053353219349e-01
159 92 3.484493340014578e-01
159 117 3.918939303713564e-02
159 121 5.454629009586220e-01
159 126 5.540098543941463e-01
159 140 8.338228280450336e-01
159 143 7.597261219326121e-01
159 159 2.000000000000000e+00
160 6 6.673503789712827e-01
160 34 9.527795257670554e-01
160 36 6.217501969306781e-01
160 50 8.145618315996581e-01
160 62 3.270925331250174e-03
160 64 7.346324877992525e-01
160 68 7.264514434684364e-01
160 70 9.507658961673202e-01
160 74 8.838358069313271e-01
160 80 5.313507546113662e-01
160 88 5.360451186847081e-01
160 93 2.461311117182253e-01
160 109 8.363560472271211e-01
160 116 1.850737485040133e-02
160 120 8.018799519550008e-01
160 130 8.209472659077410e-02
160 141 4.627082961016290e-01
160 145 3.310405567204823e-01
160 160 2.000000000000000e+00
161 6 4.143594513009211e-01
161 28 7.665980946514712e-01
161 30 7.608824340311784e-01
161 38 3.556785640309825e-01
161 45 1.176299685247500e+00
161 53 6.039456301296505e-01
161 59 8.886557623804684e-01
161 67 3.115762672580014e-01
161 71 5.011529628112837e-01
161 86 7.754278173163542e-03
161 91 3.215299025140412e-01
161 111 5.103360454416860e-01
161 132 7.255001353845254e-01
161 134 9.971370153633421e-01
161 143 5.788749556619567e-01
161 149 7.459713380804366e-01
161 161 2.000000000000000e+00
162 12 4.980002398377452e-01
162 16 7.144085958537897e-01
162 31 9.137171438486718e-01
162 77 6.591364670392086e-02
162 82 4.048131591292162e-01
162 88 3.744760034663164e-01
162 106 5.052245503229952e-01
162 114 6.044409163418940e-01
162 122 3.125936006777432e-01
162 134 8.823330205710644e-02
162 139 1.044112147539410e-01
162 152 3.591875534165651e-01
162 155 6.265287718118712e-01
162 162 2.000000000000000e+00
163 4 3.986443612377232e-01
163 5 1.582595598103197e-01
163 6 9.131845626581134e-01
163 8 3.354146280230909e-01
163 10 6.649485664546385e-01
163 12 3.682435451451161e-01
163 35 7.103185241910436e-01
163 49 7.927369942692357e-01
163 53 7.132855729024421e-01
163 59 1.452151414535157e-01
163 70 9.353443086576682e-01
163 85 8.567424824072580e-01
163 86 2.386496902328538e-01
163 88 8.986040632559059e-01
163 90 4.233844701181777e-02
163 92 1.046801040377833e-01
163 105 5.078772158556225e-01
163 107 4.048656242175994e-01
163 111 9.500299212339991e-02
163 124 7.604567395401959e-01
163 139 3.743518907761850e-01
163 153 4.149537316721186e-01
163 161 9.677721619298484e-01
163 163 2.000000000000000e+00
164 9 7.984696757236420e-02
164 10 2.146081917317016e-01
164 23 5.105753415560003e-01
164 28 5.948287062056128e-01
164 48 2.519915301498806e-01
164 73 2.429520001728267e-01
164 77 1.094119576791019e+00
164 82 9.079225374169210e-01
164 92 8.499393107557464e-01
164 95 2.658272352737812e-01
164 101 5.544947561549887e-01
164 105 9.600448411682890e-01
164 116 2.982926784307767e-01
164 135 5.739230268696497e-01
164 137 9.517746605906637e-01
164 148 7.910103781422749e-01
164 157 6.333647922608000e-01
164 164 2.000000000000000e+00
165 10 4.422992746295596e-01
165 18 6.874407274628407e-01
165 21 9.094281989890066e-01
165 23 3.326051492320419e-01
165 24 9.474681703773609e-01
165 37 4.400835628923800e-01
165 40 1.516713730592393e-01
165 43 8.186470356007953e-01
165 46 9.218759204978300e-01
165 59 9.925619586654540e-01
165 63 4.749670383902342e-01
165 74 1.631674227624474e-01
165 100 6.506193044021960e-01
165 110 9.776290983027429e-01
165 146 3.298406045460256e-02
165 152 3.644698984122038e-01
165 159 9.240901299302697e-01
165 165 3.673468365105322e+00
166 2 3.688703967009803e-01
166 14 6.421997080057483e-01
166 18 7.492714856757319e-01
166 22 2.323216651867163e-01
166 28 6.617869334649231e-01
166 44 8.667187281564487e-01
166 53 6.757708521739515e-01
166 60 9.014895298426958e-01
166 73 1.455622477286236e-01
166 89 8.272336728041425e-01
166 114 9.107742441373549e-01
166 118 9.789143231615323e-01
166 137 2.310348002217636e-01
166 141 6.578523819135361e-01
166 146 9.649448154923829e-01
166 149 1.491488035787145e-01
166 150 3.821164941872488e-01
166 151 6.116349540090713e-01
166 166 2.000000000000000e+00
167 3 2.874853631425153e-01
167 8 5.375177369454923e-01
167 26 3.460772895798470e-01
167 46 9.671742142947083e-01
167 49 9.731018826310861e-01
167 51 2.697184040959092e-01
167 54 3.822907885207719e-01
167 65 4.824862812971867e-01
167 69 8.203261953537418e-01
167 81 2.779869162011818e-01
167 101 5.077539846326035e-01
167 116 6.002260112460844e-02
167 118 4.560293035986761e-01
167 127 4.807311253406010e-02
167 128 5.938812372144722e-01
167 136 6.571461156801605e-01
167 160 9.812199387238570e-01
167 167 2.000000000000000e+00
168 5 3.889029738914982e-01
168 11 8.189771320624352e-01
168 30 7.198093165072694e-02
168 58 1.223134840837452e-01
168 66 8.222758915234324e-01
168 82 8.139034722724935e-01
168 90 7.288170327753302e-01
168 91 2.481080856948021e-01
168 115 4.733390539528769e-01
168 120 7.530369619509140e-01
168 121 1.204992238686786e-02
168 122 9.024399961374364e-01
168 125 3.107869045736584e-01
168 154 1.250736939294357e-01
168 156 7.830928457608908e-01
168 168 2.000000000000000e+00
169 16 9.916806511168340e-01
169 21 5.727443860161445e-01
169 25 7.389059114740700e-01
169 35 7.509707990031265e-01
169 38 3.202850012191099e-01
169 42 9.176178801779059e-01
169 44 6.919038621001561e-01
169 46 9.904316982839576e-01
169 80 6.384397217798281e-01
169 84 2.155552669157416e-01
169 121 7.852769159178330e-02
169 139 2.883517607899055e-02
169 145 2.258213545347888e-01
169 150 2.862444002121587e-01
169 151 1.384460094002393e-01
169 169 2.000000000000000e+00
170 10 8.174882271909767e-01
170 23 6.272089084435847e-01
170 25 1.004665793043613e-01
170 37 2.934057802676526e-03
170 38 1.373025416788609e-01
170 45 6.153629700913683e-01
170 55 6.685228650359667e-01
170 69 4.456749786574178e-01
170 70 4.571029926424934e-01
170 104 8.174688950164385e-01
170 123 1.513164618160455e-01
170 146 3.734402613483369e-01
170 154 5.127447429600749e-01
170 157 4.857540029904270e-01
170 170 2.000000000000000e+00
171 15 2.138184113599072e-01
171 22 2.315601814392664e-01
171 42 1.419302622587958e-01
171 45 6.073683503457041e-01
171 46 9.555306429428746e-01
171 47 2.751075905232685e-01
171 58 2.244948721866308e-01
171 67 9.629974874589062e-01
171 71 9.212711826193035e-01
171 83 8.228817855407875e-01
171 90 4.713372403206141e-01
171 99 5.751384410508071e-01
171 102 3.409822690640908e-01
171 106 1.228621965821191e-01
171 128 3.740534945225367e-01
171 135 1.125687364265052e-01
171 157 9.124802689900235e-02
171 162 3.656494461922259e-01
171 166 2.669520075371926e-01
171 169 8.963433041346933e-01
171 171 2.000000000000000e+00
172 13 2.693164951057729e-01
172 24 3.352956539609143e-01
172 33 5.425875024397518e-01
172 38 2.082654793345409e-01
172 39 3.878722672264679e-01
172 45 8.601463118009935e-01
172 79 5.259368750140431e-01
172 99 2.492365445288167e-01
172 105 2.184838272314918e-01
172 111 9.037242257513796e-01
172 120 5.610144530299322e-01
172 159 6.806163073779430e-01
172 172 2.000000000000000e+00
173 18 1.027459105394211e-01
173 29 2.929421134277284e-01
173 30 6.146256083794451e-01
173 35 3.872129960023282e-01
173 37 1.346282074029846e-01
173 52 4.881055918688239e-01
173 64 6.802536731460787e-01
173 65 2.763392932963534e-01
173 78 7.754172353702062e-01
173 79 7.374534716181153e-01
173 88 3.576964395405602e-01
173 89 3.860477665573104e-01
173 91 7.819507374259289e-01
173 105 3.086524767349133e-01
173 123 4.928905691681986e-01
173 151 7.713620830546257e-01
173 155 6.359108609667031e-01
173 164 3.648406537675234e-01
173 167 6.008423796554239e-01
173 169 1.671468749931097e-01
173 170 4.949436627067181e-01
173 172 2.231577284029266e-01
173 173 2.000000000000000e+00
174 1 4.275807369730473e-01
174 18 5.751693417575705e-01
174 27 8.817116471665708e-01
174 41 6.663410680347880e-01
174 47 7.002100149902226e-01
174 63 2.912485752700574e-01
174 78 3.303704732688151e-01
174 92 3.420734567548015e-01
174 131 8.824784206572939e-01
174 136 7.492581153459288e-01
174 145 5.731575117175184e-01
174 171 7.555335343393400e-01
174 174 2.000000000000000e+00
175 6 6.728922395728768e-01
175 30 4.277101174687880e-01
175 90 9.368455962844964e-01
175 96 5.708484309396690e-01
175 103 6.893870495625690e-01
175 104 4.654244137418773e-01
175 107 5.143244403747294e-02
175 119 8.809007393516310e-03
175 139 2.577048321094443e-01
175 148 3.666173031084857e-01
175 149 7.650623977114992e-01
175 162 5.040004504673375e-01
175 175 2.000000000000000e+00
176 24 7.747421165128814e-01
176 29 7.424142652825937e-01
176 39 5.161218307070647e-02
176 42 2.111563775406804e-01
176 52 6.613737363753611e-01
176 74 2.925705925387012e-01
176 84 7.027287830617620e-01
176 89 7.107190732694113e-01
176 93 1.956157715000211e-01
176 120 1.516898654534085e+00
176 129 4.430455076914667e-01
176 156 2.095889383596790e-01
176 157 4.450525190731238e-01
176 160 4.925282820253181e-01
176 173 9.874671869517104e-02
176 176 2.000000000000000e+00
177 29 9.540497599279182e-01
177 34 4.231748514330562e-01
177 45 4.483802399032780e-01
177 70 5.280567991643870e-02
177 78 5.105189477298999e-01
177 81 4.592924535341931e-01
177 86 5.953606553415058e-02
177 96 7.782361889603040e-02
177 103 2.089206776950879e-01
177 109 9.596772340692559e-01
177 133 8.019422935894484e-01
177 142 6.317956208047733e-01
177 144 2.092074824188761e-01
177 149 7.520727354999752e-01
177 158 6.215672344817076e-01
177 170 9.812605334682745e-02
177 177 2.000000000000000e+00
178 16 6.577786070045399e-01
178 31 7.298049399154900e-01
178 39 8.501391296312288e-01
178 66 9.713526750860549e-01
178 67 4.011162056547923e-01
178 74 9.574154865182017e-01
178 90 4.145495531479622e-01
178 102 9.213177640914574e-01
178 122 7.155716102024683e-01
178 125 4.443015359750696e-01
178 140 8.044414516714257e-01
178 141 5.616616454485868e-02
178 146 8.154121156320211e-01
178 151 4.945501900971840e-01
178 154 7.555126661096212e-02
178 162 7.382520435769234e-01
178 178 2.000000000000000e+00
179 21 8.630480434413299e-01
179 34 8.472992334462006e-01
179 52 5.191676888845621e-01
179 64 7.848376325911943e-01
179 77 1.198600534136561e-01
179 125 1.509547874116464e-01
179 134 6.829937462355694e-01
179 152 2.215330055358130e-01
179 158 8.896144679289798e-01
179 171 7.483263511746696e-02
179 179 2.000000000000000e+00
180 16 8.604507356663434e-01
180 20 8.680756286211589e-01
180 39 6.780795101909313e-01
180 45 2.726135615193297e-01
180 61 1.373973810103708e-01
180 78 4.628567782154739e-01
180 90 2.157377640631675e-02
180 93 6.325076493297723e-01
180 101 4.382984544444080e-02
180 108 3.104342531827344e-01
180 112 2.122012188804182e-01
180 115 2.386259487126053e-01
180 127 5.756308982730933e-01
180 130 6.534950697145432e-01
180 140 2.655851973476776e-01
180 149 7.671710105165188e-01
180 168 2.873992733194580e-01
180 180 2.000000000000000e+00
181 24 2.240670469152124e-01
181 41 6.875567410688029e-01
181 64 4.671301427634830e-01
181 81 4.823185800675971e-01
181 83 3.934383632342128e-01
181 93 1.835417237656495e-01
181 95 3.489524114513541e-01
181 118 6.313740799691089e-01
181 136 3.881522880889726e-01
181 143 2.618596195155383e-01
181 144 5.903997659597278e-01
181 147 5.341366191363328e-01
181 154 8.186421885384328e-01
181 163 5.604225186158683e-01
181 181 2.000000000000000e+00
182 5 7.661876834534036e-01
182 14 7.870358421952763e-01
182 16 9.997320842956724e-01
182 17 1.890910443589027e-01
182 18 4.710272429322744e-01
182 31 7.587408909491860e-01
182 47 9.093375737908073e-01
182 71 7.765945896052742e-01
182 80 4.373299335910750e-01
182 81 5.072797645492290e-01
182 94 4.764554232253223e-01
182 111 7.911886687763996e-01
182 120 9.592379046834011e-01
182 136 3.947820662702183e-01
182 144 1.095937745668736e-01
182 150 1.526229163343162e-02
182 157 3.099741715315010e-01
182 167 4.647437842994651e-01
182 174 9.944256888941777e-01
182 182 2.000000000000000e+00
183 10 5.004297365192644e-01
183 11 1.222962663595306e-01
183 15 5.234580838648993e-01
183 18 5.612038322088613e-01
183 32 5.564823060900632e-01
183 46 1.320870452221850e-01
183 51 5.515775023584555e-01
183 57 9.572856089660257e-01
183 95 8.803644095245726e-01
183 97 9.434607142798760e-01
183 100 4.294658265662032e-01
183 114 7.160332349413275e-01
183 116 5.980550275396457e-01
183 133 6.788544438340626e-01
183 134 7.878442635970163e-01
183 139 4.139907467220009e-01
183 155 3.236371752402392e-01
183 158 6.465782804578168e-01
183 164 7.941799648786311e-01
183 172 5.076488296842998e-01
183 173 3.669571127524548e-01
183 175 1.302279463585363e-01
183 179 1.411804987365669e-01
183 183 2.000000000000000e+00
184 26 3.383262702882998e-01
184 51 9.115586810070964e-01
184 64 4.003346819759369e-01
184 65 7.639760846452411e-01
184 70 2.255802472456261e-01
184 89 7.055997631197547e-01
184 111 6.153054291287591e-01
184 126 6.422981233693712e-01
184 127 8.421751145444563e-01
184 137 1.751107692938576e-01
184 142 2.577676921855739e-01
184 177 7.111269215469441e-01
184 184 2.000000000000000e+00
185 3 8.104875250703412e-01
185 9 9.062289371518715e-01
185 16 3.093723624631325e-01
185 25 1.149522224736661e-01
185 27 1.193119135169676e-01
185 64 9.717589759212162e-01
185 72 3.822725950399758e-01
185 73 3.432821258872106e-01
185 102 2.593247589924867e-01
185 105 4.256852391184338e-01
185 112 3.822970923760016e-01
185 117 5.379914205333211e-01
185 135 5.160835415052822e-02
185 150 2.323677242396486e-01
185 160 1.653597819320907e-02
185 165 1.043769288195843e-01
185 179 6.313037773282109e-01
185 180 9.569986731397976e-01
185 185 3.632811855006270e+00
186 13 1.464993069190235e-03
186 19 1.763147741869153e-01
186 24 8.001313608829286e-01
186 38 8.023539573607814e-01
186 42 6.677017570826429e-01
186 49 4.437407795297357e-01
186 51 7.001535787365740e-01
186 61 1.795347099923905e-02
186 66 9.107606857469649e-01
186 69 9.803912045930757e-01
186 71 9.413403512331711e-01
186 93 6.829503998028645e-01
186 95 3.479305810464729e-01
186 108 1.587421289773886e-01
186 112 4.394657393139495e-01
186 123 3.002323493779457e-01
186 138 7.615289337760223e-02
186 144 2.613670924884023e-01
186 156 9.298664839649694e-01
186 160 2.563853132914532e-01
186 163 5.098621284446674e-01
186 186 2.000000000000000e+00
187 9 8.159766656096541e-01
187 23 6.002347697799049e-01
187 43 1.881446878528852e-01
187 45 9.350307733358000e-01
187 51 1.773667708863997e-01
187 63 3.670803735927616e-01
187 67 6.334889518377088e-01
187 80 1.244092058550282e-01
187 82 9.867209808541344e-02
187 83 7.663857500825573e-01
187 97 9.926254734858617e-01
187 111 4.390835760299835e-01
187 118 6.241815293460617e-01
187 121 8.344907958705201e-01
187 140 7.139279481853057e-01
187 148 9.842170145647735e-01
187 159 3.554425871761966e-01
187 164 5.545607137627746e-01
187 168 8.479750788778987e-01
187 186 2.630354222897866e-01
187 187 2.000000000000000e+00
188 7 2.850580038232631e-01
188 12 7.829690716572560e-01
188 22 9.403964325741719e-01
188 26 8.939384594545691e-01
188 29 4.325603005193434e-01
188 56 1.036408084990559e-01
188 62 9.045366699035040e-02
188 69 9.269155124355383e-01
188 90 2.259143838762584e-01
188 104 6.809383802246350e-01
188 115 9.940090280619832e-01
188 118 6.101709176419851e-01
188 124 2.214948523288405e-01
188 130 4.179601490671497e-01
188 131 1.296087409541647e-01
188 188 2.000000000000000e+00
189 31 5.756237505871977e-01
189 35 6.218972545990115e-01
189 48 9.358788632431999e-01
189 52 9.411804093492668e-01
189 78 7.646482407910262e-01
189 81 3.469911342520381e-01
189 87 5.234983842885422e-01
189 88 6.230713954829474e-01
189 97 6.779299063160986e-01
189 105 4.010048424833766e-01
189 111 6.316807008928934e-01
189 122 5.229201689742385e-01
189 124 7.876884022509920e-01
189 142 8.432960983917892e-02
189 153 3.439130891837887e-01
189 178 4.979745883646450e-01
189 186 5.121678841676017e-01
189 187 8.380356018481746e-01
189 189 2.000000000000000e+00
190 10 4.571750275536186e-01
190 15 3.246169418971795e-01
190 27 7.298283128952300e-01
190 57 9.654571431781466e-01
190 61 6.381359040546664e-02
190 64 6.322266957716330e-01
190 77 8.514544141780167e-01
190 91 1.952080922233086e-01
190 109 6.223035132347998e-01
190 112 2.569915637578092e-01
190 118 1.234400096930975e-01
190 150 4.725410540391179e-01
190 166 8.912718388380946e-01
190 181 5.651565725778080e-01
190 190 2.000000000000000e+00
191 24 4.496650795130497e-02
191 28 5.721718772876565e-01
191 48 1.824656747919315e-01
191 56 2.203109344617523e-01
191 60 9.829171160311863e-01
191 65 7.568797524806798e-01
191 90 9.384663140188765e-01
191 105 9.032685944944840e-01
191 114 3.162153881423563e-01
191 121 1.008253360537313e-01
191 149 3.596384817559818e-01
191 164 6.588428999655017e-01
191 191 2.481929702439436e+00
192 9 3.293179302503185e-01
192 18 2.879493696326371e-01
192 41 2.153260029859805e-02
192 56 2.019594077352938e-02
192 61 8.084479201591189e-01
192 62 6.614720556049603e-01
192 80 9.685586915273413e-01
192 98 8.538272078327562e-01
192 108 8.967836940126095e-01
192 109 1.452973536758768e-01
192 114 1.828020802892808e-01
192 115 2.490928544567138e-01
192 123 7.670828872292905e-01
192 128 6.061677013350956e-01
192 133 1.749335627507892e-01
192 134 6.934472408983114e-01
192 148 7.861082977582377e-01
192 180 5.587858269153244e-01
192 187 2.540075899465455e-02
192 192 2.000000000000000e+00
193 7 6.372679724940603e-01
193 10 5.195860529671238e-01
193 15 2.586708172542018e-02
193 17 1.317245973610538e-01
193 19 5.213976879026785e-01
193 46 6.660234418087588e-01
193 47 8.227324089914695e-01
193 53 7.968929647059998e-01
193 77 7.686681003916374e-01
193 95 4.850207076895963e-01
193 96 1.097792414581715e-01
193 97 7.674809558877116e-03
193 116 3.838061430994795e-01
193 126 4.194707306420720e-02
193 131 6.641088904830289e-01
193 138 2.143455600636740e-01
193 147 3.260997005896973e-01
193 148 1.742020336431997e-01
193 153 5.826778747168274e-01
193 154 2.346159569252331e-01
193 172 8.217456485382345e-01
193 181 9.371048004275273e-02
193 186 1.597582884338233e-02
193 189 3.059561420197624e-01
193 193 2.000000000000000e+00
194 10 9.507680742803991e-01
194 11 1.126530867678159e-01
194 33 4.658056543359358e-01
194 35 6.115886778637267e-01
194 37 2.458641128024492e-01
194 41 3.406616915379539e-01
194 51 5.771096494637823e-01
194 52 5.639907834416131e-01
194 64 9.578529277568275e-01
194 77 2.182858897707415e-01
194 78 6.212319904757898e-01
194 92 6.288734702801819e-01
194 96 2.041345068512934e-02
194 102 4.818281098175908e-01
194 106 3.518072207101378e-01
194 112 7.894973768274720e-01
194 133 3.160904474199687e-01
194 145 8.255644893453816e-01
194 148 7.924768477103724e-01
194 163 8.300419747859478e-02
194 194 2.000000000000000e+00
195 6 5.841741841817242e-01
195 32 9.728742205450938e-01
195 33 7.646262776843930e-01
195 37 9.024316492756189e-01
195 38 1.803909018294848e-01
195 47 6.164496471503238e-01
195 64 6.538773180971337e-01
195 68 6.743358037395014e-01
195 78 5.020188730484820e-01
195 83 9.950871022930186e-01
195 84 4.143124612843663e-02
195 95 9.457692956786969e-01
195 98 1.099099397417457e-01
195 109 3.232921008139971e-01
195 132 2.268963399562227e-01
195 167 2.658455338097522e-01
195 171 5.646261312134161e-01
195 173 8.070929586960054e-01
195 176 5.008270423112718e-01
195 180 4.018599056890764e-01
195 187 3.866288676493841e-01
195 190 5.831874555705602e-01
195 191 6.542544607656283e-01
195 192 1.873878000961137e-01
195 195 2.000000000000000e+00
196 7 3.158193796513056e-01
196 17 2.894175234204003e-01
196 27 6.285329368298209e-02
196 30 6.447234896286991e-01
196 42 9.014696613070952e-01
196 44 8.355099278794716e-01
196 47 7.185363289957758e-01
196 48 5.305176591168059e-02
196 49 7.494020318593119e-01
196 51 8.299993935948246e-01
196 63 1.178228526199344e-01
196 77 6.353617674283816e-01
196 102 8.522479719830128e-01
196 124 7.044619043679154e-01
196 132 1.642364066202954e-01
196 140 7.279763224123880e-01
196 151 1.344947292738160e+00
196 157 6.432528348244815e-02
196 163 4.214964668386301e-01
196 187 3.623676595170363e-01
196 190 4.751759729268158e-01
196 192 2.471976225398979e-01
196 196 2.000000000000000e+00
197 3 2.936167806572736e-01
197 9 2.806737102603348e-01
197 32 1.010984323470566e-01
197 33 3.631937926123300e-01
197 39 3.610220635886388e-01
197 50 2.425293604325507e-02
197 63 6.975809089595323e-01
197 68 1.099249732991686e-01
197 106 1.545908999437234e-01
197 111 4.670959639823826e-01
197 126 4.809936394209524e-01
197 129 5.205653961413648e-01
197 133 5.021969138135640e-01
197 140 1.351638097674153e-01
197 151 2.267173457998499e-01
197 181 8.014304062453171e-01
197 186 7.208234895666005e-01
197 197 2.000000000000000e+00
198 24 5.017877691636330e-02
198 48 9.827149920671255e-01
198 52 1.650652159853248e+00
198 65 5.273312047309596e-01
198 73 1.293592282716498e-01
198 83 3.446632746883567e-01
198 93 9.763590996313060e-01
198 97 9.293152595474673e-01
198 100 3.163178370106678e-01
198 102 8.790789882621566e-01
198 108 5.252591137465916e-01
198 109 4.642712240606006e-02
198 113 6.585763681631450e-01
198 121 1.224272985556355e-01
198 125 1.224353038484858e-01
198 151 8.293223899958574e-01
198 155 2.461300560342627e-02
198 159 9.957808921681420e-01
198 175 7.675428026135001e-01
198 178 6.336387354152389e-01
198 179 3.237755792652695e-01
198 187 7.934440426487007e-01
198 192 7.188173469272647e-01
198 198 3.150628713010612e+00
199 1 3.984925870644045e-01
199 7 2.921438522052976e-01
199 20 8.276651670524876e-01
199 47 3.771801877742066e-01
199 56 4.556491209889797e-01
199 67 9.977430614437768e-01
199 75 4.656848627375154e-02
199 92 9.905563089697067e-02
199 105 7.728577137080984e-01
199 145 2.959437546594936e-01
199 164 1.587491932713886e-01
199 165 7.699726459516527e-01
199 172 8.453164795991859e-01
199 186 6.025729087173359e-02
199 189 1.630980061516202e-01
199 197 9.184359876671189e-01
199 199 2.000000000000000e+00
200 14 6.059691467330863e-02
200 23 7.881790325000575e-01
200 26 8.675496606935285e-01
200 76 1.366005684005627e+00
200 90 1.233042055880438e-01
200 114 6.417014709360642e-01
200 124 3.845267170265324e-01
200 126 3.121304867385143e-01
200 138 4.303418330669440e-02
200 147 4.026410850864478e-01
200 150 2.118901557137355e-01
200 159 4.325745218938831e-01
200 175 6.889356410085627e-01
200 193 8.733002152151227e-01
200 200 2.000000000000000e+00
